0 1 1
0 279 1
1 0 1
1 241 1
2 278 1
2 279 1
3 276 1
4 5 1
4 6 1
5 4 1
6 4 1
6 8 1
7 8 1
7 9 1
8 6 1
8 7 1
9 7 1
9 10 1
10 9 1
10 11 1
11 10 1
11 14 1
12 13 1
12 14 1
13 12 1
13 23 1
14 11 1
14 12 1
15 16 1
15 270 1
16 15 1
17 18 1
17 132 1
18 17 1
18 19 1
19 18 1
19 20 1
20 19 1
20 127 1
21 24 1
21 25 1
22 23 1
22 24 1
23 13 1
23 22 1
24 21 1
24 22 1
25 21 1
25 26 1
26 25 1
26 27 1
27 26 1
27 28 1
28 27 1
28 29 1
29 28 1
29 30 1
30 29 1
30 31 1
31 30 1
31 32 1
32 31 1
32 33 1
33 32 1
33 34 1
34 33 1
34 35 1
35 34 1
35 36 1
36 35 1
36 37 1
37 36 1
37 38 1
38 37 1
38 39 1
39 38 1
39 40 1
40 39 1
40 41 1
41 40 1
41 42 1
42 41 1
42 59 1
43 44 1
43 58 1
44 43 1
44 45 1
45 44 1
45 46 1
46 45 1
46 47 1
47 46 1
47 48 1
48 47 1
48 49 1
49 48 1
49 50 1
50 49 1
50 51 1
51 50 1
51 52 1
52 51 1
52 53 1
53 52 1
53 54 1
54 53 1
54 55 1
55 54 1
55 56 1
56 55 1
56 57 1
57 56 1
57 67 1
58 43 1
59 42 1
59 60 1
60 59 1
60 117 1
61 62 1
62 61 1
62 63 1
63 62 1
63 64 1
64 63 1
64 65 1
65 64 1
65 66 1
66 65 1
66 68 1
67 57 1
67 68 1
68 66 1
68 67 1
68 69 1
69 68 1
69 70 1
70 69 1
70 71 1
71 70 1
71 72 1
72 71 1
72 73 1
73 72 1
73 75 1
74 75 1
74 76 1
75 73 1
75 74 1
76 74 1
76 77 1
77 76 1
77 78 1
78 77 1
78 79 1
79 78 1
79 80 1
80 79 1
80 81 1
81 80 1
81 82 1
82 81 1
82 87 1
83 84 1
83 86 1
84 83 1
84 85 1
85 84 1
85 115 1
86 83 1
86 112 1
87 82 1
87 111 1
88 89 1
88 108 1
89 88 1
89 90 1
90 89 1
90 91 1
91 90 1
91 92 1
92 91 1
92 93 1
93 92 1
93 94 1
94 93 1
94 95 1
95 94 1
95 96 1
96 95 1
96 97 1
97 96 1
97 98 1
98 97 1
98 99 1
99 98 1
99 100 1
100 99 1
100 168 1
101 102 1
102 101 1
102 103 1
103 102 1
103 104 1
104 103 1
104 106 1
105 106 1
105 172 1
106 104 1
106 105 1
107 108 1
107 109 1
108 88 1
108 107 1
109 107 1
109 111 1
110 111 1
110 113 1
111 87 1
111 109 1
111 110 1
112 86 1
112 113 1
113 110 1
113 112 1
114 115 1
114 116 1
115 85 1
115 114 1
116 114 1
116 117 1
117 60 1
117 116 1
118 119 1
118 156 1
119 118 1
119 120 1
120 119 1
120 121 1
121 120 1
121 122 1
122 121 1
122 123 1
123 122 1
123 124 1
124 123 1
124 125 1
125 124 1
125 126 1
126 125 1
126 127 1
127 20 1
127 126 1
128 129 1
128 153 1
129 128 1
129 130 1
130 129 1
130 131 1
131 130 1
131 132 1
132 17 1
132 131 1
133 134 1
133 269 1
134 133 1
134 135 1
135 134 1
135 136 1
136 135 1
136 137 1
137 136 1
137 138 1
138 137 1
138 139 1
139 138 1
139 140 1
140 139 1
140 141 1
141 140 1
141 142 1
142 141 1
142 143 1
143 142 1
143 199 1
144 145 1
144 198 1
145 144 1
145 146 1
146 145 1
146 147 1
147 146 1
147 148 1
148 147 1
148 149 1
149 148 1
149 178 1
150 151 1
150 177 1
151 150 1
151 155 1
152 154 1
152 155 1
153 128 1
153 154 1
154 152 1
154 153 1
155 151 1
155 152 1
156 118 1
156 157 1
157 156 1
157 158 1
158 157 1
158 159 1
159 158 1
159 174 1
160 173 1
160 174 1
161 162 1
161 173 1
162 161 1
162 163 1
163 162 1
163 164 1
164 163 1
164 165 1
165 164 1
165 166 1
166 165 1
166 167 1
167 166 1
167 170 1
168 100 1
168 169 1
169 168 1
169 171 1
170 167 1
170 171 1
171 169 1
171 170 1
172 105 1
172 173 1
173 160 1
173 161 1
173 172 1
174 159 1
174 160 1
175 176 1
175 179 1
176 175 1
176 177 1
177 150 1
177 176 1
178 149 1
178 179 1
179 175 1
179 178 1
180 181 1
181 180 1
181 182 1
182 181 1
182 183 1
183 182 1
183 184 1
184 183 1
184 185 1
185 184 1
185 186 1
186 185 1
186 187 1
187 186 1
187 188 1
188 187 1
188 189 1
189 188 1
189 190 1
190 189 1
190 191 1
191 190 1
191 192 1
192 191 1
192 193 1
193 192 1
193 194 1
194 193 1
194 195 1
195 194 1
195 196 1
196 195 1
196 197 1
197 196 1
197 200 1
198 144 1
198 199 1
199 143 1
199 198 1
200 197 1
200 201 1
201 200 1
201 202 1
202 201 1
202 203 1
203 202 1
203 204 1
204 203 1
204 205 1
205 204 1
205 207 1
206 207 1
207 205 1
207 206 1
207 208 1
208 207 1
208 209 1
208 251 1
209 208 1
209 210 1
210 209 1
210 211 1
211 210 1
211 212 1
212 211 1
212 213 1
213 212 1
213 214 1
214 213 1
214 215 1
215 214 1
215 216 1
216 215 1
216 217 1
217 216 1
217 218 1
218 217 1
218 219 1
219 218 1
219 220 1
220 219 1
220 221 1
221 220 1
221 222 1
222 221 1
222 223 1
223 222 1
223 224 1
224 223 1
224 225 1
225 224 1
225 226 1
226 225 1
226 227 1
227 226 1
227 228 1
228 227 1
228 229 1
229 228 1
229 250 1
230 231 1
230 245 1
231 230 1
231 232 1
232 231 1
232 233 1
233 232 1
233 234 1
234 233 1
234 235 1
235 234 1
235 236 1
236 235 1
236 237 1
237 236 1
237 238 1
238 237 1
238 239 1
239 238 1
239 240 1
240 239 1
240 242 1
241 1 1
241 242 1
242 240 1
242 241 1
243 244 1
243 246 1
244 243 1
244 245 1
245 230 1
245 244 1
246 243 1
246 247 1
247 246 1
247 248 1
248 247 1
248 249 1
249 248 1
249 250 1
250 229 1
250 249 1
251 208 1
251 252 1
252 251 1
252 253 1
253 252 1
253 254 1
254 253 1
254 255 1
255 254 1
255 256 1
256 255 1
256 257 1
257 256 1
257 258 1
258 257 1
258 259 1
259 258 1
259 260 1
260 259 1
260 261 1
261 260 1
261 262 1
262 261 1
262 263 1
263 262 1
263 264 1
264 263 1
264 265 1
265 264 1
265 266 1
266 265 1
266 267 1
267 266 1
267 268 1
268 267 1
268 269 1
269 133 1
269 268 1
270 15 1
270 271 1
271 270 1
271 272 1
272 271 1
272 273 1
273 272 1
273 274 1
274 273 1
274 275 1
275 274 1
275 276 1
276 3 1
276 275 1
276 277 1
277 276 1
277 278 1
278 2 1
278 277 1
279 0 1
279 2 1
